\ Generated by MPModelProtoExporter
\   Name             : 
\   Format           : Free
\   Constraints      : 4
\   Variables        : 4
\     Binary         : 4
\     Integer        : 0
\     Continuous     : 0
Maximize
 Obj: +9 x[0] +5 x[1] +6 x[2] +4 x[3] 
Subject to
 const_0: +6 x[0] +3 x[1] +5 x[2] +2 x[3]  <= 11
 const_1: +1 x[2] +1 x[3]  <= 1
 const_2: -1 x[0] +1 x[2]  <= 0
 const_3: -1 x[1] +1 x[3]  <= 0
Bounds
 0 <= x[0] <= 1
 0 <= x[1] <= 1
 0 <= x[2] <= 1
 0 <= x[3] <= 1
Binaries
 x[0]
 x[1]
 x[2]
 x[3]
End
